14390716444038082505012,13,1,2,08,15,1,2,012,11,1,2,010,6,1,2,08,7,1,2,07,15,1,2,05,12,1,2,014,7,1,2,03,14,1,2,04,2,1,2,06,3,1,2,014,11,1,2,011,7,1,2,09,13,1,2,05,1,1,2,02,11,1,2,014,6,1,2,012,15,1,2,02,8,1,2,015,7,1,2,08,10,1,2,07,12,1,2,011,13,1,2,013,11,1,2,07,11,1,2,01,9,1,2,04,13,1,2,011,9,1,2,02,3,1,2,09,7,1,2,013,14,1,2,03,8,1,2,02,8,1,2,012,3,1,2,015,12,1,2,06,13,1,2,05,4,1,2,02,5,1,2,01,8,1,2,010,12,1,2,015,2,1,2,015,11,1,2,03,6,1,2,07,4,1,2,01,4,1,2,01,13,1,2,014,3,1,2,010,12,1,2,06,4,1,2,012,12,1,2,0